(declare-fun bvlambda_27_ ()Bool         )
(declare-fun a85 () (Array (_ BitVec 1) (_ BitVec 4)))
(assert
(let (($e7 (_ bv0 2)))
(let (($e329 (concat $e7 false       )))
(let (($e330 (concat $e329 false       )))
(let (($e333               bvlambda_27_ ))
(let (($e335                    (not   $e333) ))
(let (($e336        (not   $e335)               ))
(let (($e362                    $e336 ))
(let (($e386 (store a85 true        $e330)))
(
                 extract(select $e386(not   $e362))
                                                                                                                                                                                                                                                                                                                                                                                                                                                                                                                                                                                                                                                                                                                                                                                                                                                                                                                                                                                                                                                                                                                                                                                      ))                       )                         )) )  ))                                                                                                                                                                                                                                                                                      )      )
